sat
(:max-memory         18.42
 :memory             18.33
 :nlsat-arith-var    3
 :nlsat-atoms        12
 :nlsat-bool-var     1
 :nlsat-clauses      9
 :nlsat-conflicts    2
 :nlsat-propagations 19
 :nlsat-stages       6
 :num-allocs         52224
 :rlimit-count       2217
 :time               0.00
 :total-time         0.02)
